c "122096.clq"
p edge 248 3712
e 1 17
e 1 18
e 1 19
e 1 20
e 1 21
e 1 23
e 1 24
e 1 25
e 1 26
e 1 27
e 1 29
e 1 30
e 1 35
e 1 36
e 1 47
e 1 50
e 1 54
e 1 56
e 1 59
e 1 63
e 1 65
e 1 66
e 1 73
e 1 74
e 1 82
e 1 83
e 1 85
e 1 86
e 1 89
e 1 90
e 1 96
e 1 104
e 1 106
e 1 110
e 1 116
e 1 117
e 1 131
e 1 139
e 1 146
e 1 148
e 1 153
e 1 154
e 1 159
e 1 165
e 1 166
e 1 181
e 1 192
e 1 193
e 1 200
e 1 206
e 1 222
e 1 225
e 1 228
e 1 242
e 2 17
e 2 18
e 2 19
e 2 20
e 2 22
e 2 25
e 2 33
e 2 42
e 2 43
e 2 44
e 2 50
e 2 54
e 2 58
e 2 63
e 2 81
e 2 84
e 2 102
e 2 103
e 2 105
e 2 109
e 2 110
e 2 115
e 2 118
e 2 120
e 2 135
e 2 137
e 2 208
e 2 212
e 2 220
e 2 244
e 3 17
e 3 18
e 3 19
e 3 20
e 3 22
e 3 23
e 3 30
e 3 33
e 3 34
e 3 45
e 3 75
e 3 79
e 3 95
e 3 99
e 3 116
e 3 124
e 3 144
e 3 147
e 3 165
e 3 189
e 3 199
e 3 212
e 3 222
e 3 225
e 3 237
e 4 17
e 4 18
e 4 19
e 4 21
e 4 22
e 4 25
e 4 26
e 4 31
e 4 32
e 4 33
e 4 45
e 4 46
e 4 47
e 4 50
e 4 61
e 4 71
e 4 76
e 4 94
e 4 107
e 4 117
e 4 121
e 4 138
e 4 145
e 4 161
e 4 164
e 4 189
e 4 219
e 4 229
e 4 244
e 5 17
e 5 18
e 5 20
e 5 23
e 5 24
e 5 26
e 5 27
e 5 31
e 5 32
e 5 34
e 5 36
e 5 37
e 5 39
e 5 40
e 5 41
e 5 44
e 5 48
e 5 53
e 5 55
e 5 58
e 5 60
e 5 62
e 5 75
e 5 80
e 5 90
e 5 96
e 5 99
e 5 101
e 5 105
e 5 110
e 5 112
e 5 121
e 5 123
e 5 128
e 5 130
e 5 133
e 5 137
e 5 138
e 5 139
e 5 140
e 5 159
e 5 160
e 5 193
e 5 194
e 5 203
e 5 207
e 5 208
e 5 213
e 5 221
e 5 222
e 5 228
e 5 231
e 5 232
e 5 233
e 5 243
e 6 17
e 6 18
e 6 19
e 6 20
e 6 21
e 6 22
e 6 23
e 6 27
e 6 32
e 6 36
e 6 39
e 6 43
e 6 44
e 6 49
e 6 55
e 6 57
e 6 65
e 6 68
e 6 69
e 6 87
e 6 89
e 6 95
e 6 96
e 6 98
e 6 100
e 6 106
e 6 117
e 6 118
e 6 126
e 6 134
e 6 139
e 6 141
e 6 156
e 6 158
e 6 165
e 6 175
e 6 200
e 6 215
e 6 228
e 6 232
e 6 233
e 6 242
e 7 17
e 7 18
e 7 19
e 7 20
e 7 21
e 7 22
e 7 24
e 7 25
e 7 28
e 7 29
e 7 39
e 7 41
e 7 43
e 7 49
e 7 50
e 7 55
e 7 56
e 7 63
e 7 75
e 7 78
e 7 82
e 7 116
e 7 117
e 7 118
e 7 127
e 7 150
e 7 151
e 7 171
e 7 181
e 7 183
e 7 219
e 8 17
e 8 18
e 8 19
e 8 20
e 8 21
e 8 22
e 8 23
e 8 24
e 8 25
e 8 26
e 8 27
e 8 28
e 8 29
e 8 31
e 8 32
e 8 33
e 8 34
e 8 38
e 8 39
e 8 41
e 8 49
e 8 55
e 8 57
e 8 60
e 8 66
e 8 68
e 8 70
e 8 71
e 8 94
e 8 104
e 8 119
e 8 121
e 8 126
e 8 131
e 8 134
e 8 138
e 8 142
e 8 146
e 8 150
e 8 152
e 8 153
e 8 161
e 8 168
e 8 170
e 8 171
e 8 184
e 8 192
e 8 202
e 8 205
e 8 211
e 8 212
e 8 214
e 8 218
e 8 220
e 8 239
e 8 245
e 9 17
e 9 18
e 9 19
e 9 27
e 9 32
e 9 33
e 9 45
e 9 47
e 9 74
e 9 81
e 9 86
e 9 155
e 9 161
e 9 167
e 9 169
e 9 174
e 9 201
e 9 204
e 9 208
e 9 223
e 9 244
e 10 17
e 10 18
e 10 20
e 10 21
e 10 22
e 10 23
e 10 24
e 10 25
e 10 26
e 10 27
e 10 28
e 10 29
e 10 31
e 10 33
e 10 35
e 10 36
e 10 38
e 10 39
e 10 41
e 10 47
e 10 58
e 10 59
e 10 60
e 10 62
e 10 64
e 10 66
e 10 68
e 10 74
e 10 75
e 10 83
e 10 84
e 10 87
e 10 89
e 10 94
e 10 96
e 10 99
e 10 103
e 10 105
e 10 111
e 10 114
e 10 117
e 10 126
e 10 136
e 10 141
e 10 149
e 10 151
e 10 155
e 10 165
e 10 173
e 10 177
e 10 178
e 10 189
e 10 193
e 10 195
e 10 200
e 10 212
e 10 214
e 10 215
e 10 216
e 10 222
e 10 223
e 10 242
e 10 244
e 10 246
e 11 17
e 11 18
e 11 19
e 11 20
e 11 21
e 11 22
e 11 24
e 11 25
e 11 27
e 11 28
e 11 29
e 11 30
e 11 32
e 11 33
e 11 35
e 11 37
e 11 41
e 11 42
e 11 46
e 11 49
e 11 50
e 11 52
e 11 53
e 11 54
e 11 57
e 11 69
e 11 72
e 11 73
e 11 77
e 11 80
e 11 104
e 11 109
e 11 111
e 11 115
e 11 123
e 11 124
e 11 125
e 11 134
e 11 138
e 11 139
e 11 141
e 11 142
e 11 143
e 11 150
e 11 159
e 11 161
e 11 164
e 11 168
e 11 177
e 11 189
e 11 190
e 11 209
e 11 224
e 11 235
e 11 241
e 12 17
e 12 18
e 12 19
e 12 20
e 12 21
e 12 22
e 12 23
e 12 24
e 12 25
e 12 28
e 12 29
e 12 30
e 12 34
e 12 35
e 12 37
e 12 38
e 12 42
e 12 44
e 12 47
e 12 48
e 12 52
e 12 53
e 12 55
e 12 64
e 12 65
e 12 81
e 12 90
e 12 94
e 12 101
e 12 102
e 12 119
e 12 121
e 12 128
e 12 134
e 12 147
e 12 157
e 12 160
e 12 175
e 12 185
e 12 206
e 12 216
e 12 222
e 12 232
e 12 238
e 12 242
e 13 17
e 13 19
e 13 21
e 13 24
e 13 27
e 13 36
e 13 46
e 13 56
e 13 70
e 13 80
e 13 82
e 13 125
e 13 128
e 13 141
e 13 145
e 13 185
e 13 209
e 13 218
e 13 231
e 13 242
e 14 17
e 14 18
e 14 19
e 14 20
e 14 21
e 14 22
e 14 23
e 14 24
e 14 26
e 14 27
e 14 28
e 14 29
e 14 30
e 14 31
e 14 32
e 14 40
e 14 42
e 14 45
e 14 47
e 14 48
e 14 49
e 14 56
e 14 58
e 14 61
e 14 72
e 14 75
e 14 80
e 14 82
e 14 105
e 14 114
e 14 118
e 14 124
e 14 126
e 14 128
e 14 130
e 14 131
e 14 149
e 14 151
e 14 156
e 14 172
e 14 173
e 14 183
e 14 185
e 14 193
e 14 205
e 14 220
e 14 235
e 15 17
e 15 18
e 15 19
e 15 20
e 15 21
e 15 23
e 15 25
e 15 27
e 15 28
e 15 29
e 15 31
e 15 33
e 15 34
e 15 35
e 15 37
e 15 38
e 15 41
e 15 44
e 15 45
e 15 48
e 15 50
e 15 51
e 15 54
e 15 58
e 15 61
e 15 65
e 15 71
e 15 88
e 15 92
e 15 99
e 15 110
e 15 113
e 15 115
e 15 120
e 15 127
e 15 130
e 15 148
e 15 175
e 15 177
e 15 186
e 15 190
e 15 194
e 15 199
e 15 201
e 15 212
e 15 217
e 15 221
e 15 226
e 15 230
e 15 233
e 15 243
e 16 17
e 16 18
e 16 19
e 16 20
e 16 21
e 16 22
e 16 23
e 16 24
e 16 26
e 16 28
e 16 30
e 16 32
e 16 34
e 16 35
e 16 44
e 16 48
e 16 50
e 16 54
e 16 55
e 16 56
e 16 57
e 16 58
e 16 59
e 16 62
e 16 63
e 16 65
e 16 66
e 16 71
e 16 73
e 16 74
e 16 83
e 16 92
e 16 124
e 16 133
e 16 144
e 16 145
e 16 146
e 16 147
e 16 148
e 16 153
e 16 155
e 16 157
e 16 166
e 16 192
e 16 196
e 16 200
e 16 219
e 16 227
e 17 18
e 17 19
e 17 20
e 17 21
e 17 22
e 17 23
e 17 24
e 17 25
e 17 26
e 17 28
e 17 29
e 17 30
e 17 32
e 17 33
e 17 34
e 17 36
e 17 39
e 17 41
e 17 44
e 17 46
e 17 47
e 17 56
e 17 59
e 17 65
e 17 69
e 17 71
e 17 81
e 17 82
e 17 84
e 17 88
e 17 89
e 17 90
e 17 92
e 17 93
e 17 95
e 17 96
e 17 97
e 17 99
e 17 101
e 17 106
e 17 107
e 17 108
e 17 110
e 17 113
e 17 114
e 17 117
e 17 120
e 17 130
e 17 135
e 17 137
e 17 144
e 17 151
e 17 152
e 17 156
e 17 160
e 17 163
e 17 168
e 17 172
e 17 175
e 17 179
e 17 191
e 17 199
e 17 200
e 17 220
e 17 223
e 17 224
e 17 242
e 17 247
e 18 19
e 18 20
e 18 21
e 18 22
e 18 23
e 18 24
e 18 25
e 18 26
e 18 27
e 18 31
e 18 32
e 18 33
e 18 34
e 18 35
e 18 38
e 18 39
e 18 41
e 18 42
e 18 43
e 18 44
e 18 46
e 18 48
e 18 50
e 18 53
e 18 54
e 18 56
e 18 58
e 18 61
e 18 68
e 18 70
e 18 72
e 18 78
e 18 80
e 18 86
e 18 88
e 18 89
e 18 92
e 18 93
e 18 95
e 18 100
e 18 117
e 18 120
e 18 125
e 18 129
e 18 134
e 18 137
e 18 141
e 18 145
e 18 147
e 18 156
e 18 158
e 18 162
e 18 164
e 18 166
e 18 173
e 18 187
e 18 202
e 18 204
e 18 205
e 18 207
e 18 209
e 18 211
e 18 213
e 18 216
e 18 217
e 18 219
e 18 222
e 18 224
e 18 227
e 18 244
e 19 20
e 19 21
e 19 22
e 19 23
e 19 24
e 19 25
e 19 26
e 19 28
e 19 30
e 19 31
e 19 34
e 19 35
e 19 36
e 19 40
e 19 47
e 19 49
e 19 50
e 19 51
e 19 52
e 19 53
e 19 55
e 19 60
e 19 61
e 19 63
e 19 64
e 19 67
e 19 81
e 19 85
e 19 87
e 19 90
e 19 91
e 19 96
e 19 99
e 19 100
e 19 101
e 19 107
e 19 109
e 19 110
e 19 112
e 19 118
e 19 126
e 19 132
e 19 140
e 19 143
e 19 147
e 19 149
e 19 161
e 19 162
e 19 163
e 19 167
e 19 168
e 19 169
e 19 172
e 19 177
e 19 189
e 19 198
e 19 209
e 19 210
e 19 215
e 19 221
e 19 223
e 19 225
e 19 227
e 19 234
e 19 237
e 19 242
e 19 243
e 19 245
e 20 21
e 20 22
e 20 23
e 20 24
e 20 25
e 20 26
e 20 27
e 20 28
e 20 29
e 20 30
e 20 31
e 20 32
e 20 33
e 20 34
e 20 35
e 20 36
e 20 38
e 20 39
e 20 40
e 20 41
e 20 46
e 20 47
e 20 48
e 20 50
e 20 51
e 20 53
e 20 55
e 20 58
e 20 59
e 20 60
e 20 61
e 20 62
e 20 63
e 20 64
e 20 65
e 20 67
e 20 69
e 20 74
e 20 77
e 20 79
e 20 82
e 20 84
e 20 85
e 20 86
e 20 88
e 20 91
e 20 96
e 20 101
e 20 103
e 20 104
e 20 108
e 20 110
e 20 116
e 20 125
e 20 128
e 20 129
e 20 133
e 20 137
e 20 139
e 20 141
e 20 142
e 20 143
e 20 144
e 20 146
e 20 150
e 20 155
e 20 162
e 20 164
e 20 166
e 20 172
e 20 174
e 20 177
e 20 187
e 20 194
e 20 198
e 20 200
e 20 205
e 20 212
e 20 213
e 20 218
e 20 220
e 20 227
e 20 241
e 20 247
e 20 248
e 21 22
e 21 23
e 21 24
e 21 26
e 21 27
e 21 28
e 21 29
e 21 30
e 21 31
e 21 33
e 21 37
e 21 38
e 21 40
e 21 41
e 21 48
e 21 51
e 21 60
e 21 61
e 21 66
e 21 67
e 21 68
e 21 69
e 21 71
e 21 74
e 21 75
e 21 87
e 21 90
e 21 94
e 21 102
e 21 103
e 21 104
e 21 108
e 21 112
e 21 128
e 21 132
e 21 148
e 21 158
e 21 160
e 21 163
e 21 172
e 21 180
e 21 184
e 21 197
e 21 203
e 21 204
e 21 211
e 21 217
e 21 222
e 21 226
e 21 228
e 21 235
e 21 237
e 22 23
e 22 25
e 22 26
e 22 27
e 22 28
e 22 31
e 22 32
e 22 35
e 22 36
e 22 37
e 22 38
e 22 40
e 22 41
e 22 42
e 22 43
e 22 46
e 22 47
e 22 49
e 22 50
e 22 51
e 22 52
e 22 53
e 22 61
e 22 63
e 22 64
e 22 65
e 22 66
e 22 68
e 22 69
e 22 71
e 22 73
e 22 78
e 22 79
e 22 80
e 22 81
e 22 82
e 22 83
e 22 84
e 22 88
e 22 93
e 22 94
e 22 95
e 22 98
e 22 104
e 22 105
e 22 106
e 22 112
e 22 115
e 22 128
e 22 134
e 22 137
e 22 147
e 22 151
e 22 153
e 22 156
e 22 158
e 22 161
e 22 175
e 22 180
e 22 181
e 22 183
e 22 185
e 22 194
e 22 207
e 22 211
e 22 220
e 22 226
e 22 239
e 22 248
e 23 24
e 23 25
e 23 26
e 23 27
e 23 28
e 23 29
e 23 30
e 23 34
e 23 35
e 23 37
e 23 38
e 23 39
e 23 40
e 23 42
e 23 43
e 23 44
e 23 45
e 23 46
e 23 47
e 23 51
e 23 57
e 23 58
e 23 61
e 23 62
e 23 67
e 23 68
e 23 74
e 23 75
e 23 76
e 23 80
e 23 83
e 23 93
e 23 95
e 23 110
e 23 112
e 23 124
e 23 125
e 23 127
e 23 129
e 23 130
e 23 133
e 23 144
e 23 155
e 23 165
e 23 170
e 23 172
e 23 183
e 23 213
e 23 215
e 23 230
e 23 242
e 23 248
e 24 25
e 24 26
e 24 29
e 24 30
e 24 31
e 24 34
e 24 35
e 24 36
e 24 37
e 24 38
e 24 40
e 24 42
e 24 43
e 24 46
e 24 49
e 24 52
e 24 53
e 24 54
e 24 61
e 24 62
e 24 64
e 24 68
e 24 73
e 24 77
e 24 82
e 24 85
e 24 87
e 24 88
e 24 91
e 24 92
e 24 94
e 24 96
e 24 99
e 24 103
e 24 104
e 24 108
e 24 118
e 24 119
e 24 120
e 24 121
e 24 122
e 24 126
e 24 127
e 24 130
e 24 133
e 24 135
e 24 137
e 24 144
e 24 148
e 24 149
e 24 152
e 24 154
e 24 162
e 24 165
e 24 178
e 24 184
e 24 191
e 24 199
e 24 203
e 24 206
e 24 215
e 24 217
e 24 224
e 24 225
e 24 230
e 24 232
e 24 240
e 25 26
e 25 27
e 25 28
e 25 30
e 25 33
e 25 35
e 25 36
e 25 37
e 25 39
e 25 42
e 25 44
e 25 45
e 25 47
e 25 48
e 25 49
e 25 56
e 25 57
e 25 60
e 25 61
e 25 63
e 25 64
e 25 66
e 25 67
e 25 68
e 25 73
e 25 77
e 25 78
e 25 83
e 25 86
e 25 88
e 25 93
e 25 95
e 25 97
e 25 98
e 25 100
e 25 101
e 25 106
e 25 107
e 25 111
e 25 117
e 25 119
e 25 123
e 25 126
e 25 127
e 25 131
e 25 132
e 25 141
e 25 148
e 25 158
e 25 166
e 25 167
e 25 171
e 25 176
e 25 179
e 25 180
e 25 183
e 25 184
e 25 190
e 25 191
e 25 192
e 25 193
e 25 199
e 25 200
e 25 208
e 25 213
e 25 216
e 25 218
e 25 223
e 25 231
e 25 232
e 25 234
e 25 240
e 26 29
e 26 30
e 26 31
e 26 32
e 26 33
e 26 35
e 26 37
e 26 40
e 26 43
e 26 44
e 26 47
e 26 49
e 26 56
e 26 57
e 26 58
e 26 59
e 26 60
e 26 66
e 26 67
e 26 68
e 26 69
e 26 70
e 26 71
e 26 72
e 26 76
e 26 79
e 26 80
e 26 83
e 26 84
e 26 105
e 26 107
e 26 109
e 26 110
e 26 111
e 26 112
e 26 115
e 26 117
e 26 120
e 26 123
e 26 126
e 26 136
e 26 142
e 26 148
e 26 153
e 26 154
e 26 155
e 26 156
e 26 160
e 26 162
e 26 164
e 26 176
e 26 178
e 26 190
e 26 191
e 26 192
e 26 198
e 26 202
e 26 214
e 26 218
e 26 223
e 26 235
e 26 241
e 27 28
e 27 29
e 27 30
e 27 31
e 27 32
e 27 36
e 27 37
e 27 38
e 27 40
e 27 42
e 27 43
e 27 46
e 27 50
e 27 51
e 27 52
e 27 54
e 27 58
e 27 60
e 27 61
e 27 62
e 27 63
e 27 66
e 27 70
e 27 72
e 27 73
e 27 74
e 27 76
e 27 77
e 27 82
e 27 83
e 27 84
e 27 87
e 27 91
e 27 95
e 27 101
e 27 111
e 27 112
e 27 113
e 27 121
e 27 122
e 27 127
e 27 129
e 27 132
e 27 136
e 27 144
e 27 150
e 27 155
e 27 164
e 27 169
e 27 185
e 27 186
e 27 202
e 27 204
e 27 208
e 27 218
e 27 220
e 27 222
e 27 236
e 27 240
e 27 244
e 28 29
e 28 30
e 28 33
e 28 34
e 28 36
e 28 37
e 28 42
e 28 44
e 28 46
e 28 49
e 28 50
e 28 52
e 28 59
e 28 61
e 28 68
e 28 69
e 28 71
e 28 81
e 28 105
e 28 107
e 28 112
e 28 113
e 28 121
e 28 125
e 28 131
e 28 135
e 28 139
e 28 157
e 28 161
e 28 167
e 28 169
e 28 172
e 28 175
e 28 178
e 28 194
e 28 200
e 28 205
e 28 209
e 28 210
e 28 213
e 28 214
e 28 230
e 29 31
e 29 32
e 29 35
e 29 36
e 29 37
e 29 38
e 29 39
e 29 40
e 29 41
e 29 42
e 29 43
e 29 44
e 29 45
e 29 46
e 29 49
e 29 53
e 29 55
e 29 59
e 29 63
e 29 64
e 29 66
e 29 67
e 29 69
e 29 70
e 29 71
e 29 75
e 29 76
e 29 77
e 29 78
e 29 81
e 29 82
e 29 85
e 29 88
e 29 90
e 29 95
e 29 97
e 29 100
e 29 103
e 29 109
e 29 115
e 29 116
e 29 119
e 29 121
e 29 125
e 29 126
e 29 150
e 29 160
e 29 166
e 29 172
e 29 183
e 29 184
e 29 185
e 29 200
e 29 201
e 29 203
e 29 204
e 29 211
e 29 216
e 29 217
e 29 237
e 29 242
e 29 245
e 29 248
e 30 31
e 30 35
e 30 40
e 30 41
e 30 43
e 30 45
e 30 47
e 30 48
e 30 49
e 30 52
e 30 53
e 30 54
e 30 55
e 30 62
e 30 63
e 30 67
e 30 69
e 30 70
e 30 72
e 30 76
e 30 78
e 30 86
e 30 87
e 30 90
e 30 91
e 30 92
e 30 93
e 30 99
e 30 106
e 30 109
e 30 110
e 30 120
e 30 123
e 30 132
e 30 137
e 30 138
e 30 140
e 30 148
e 30 151
e 30 159
e 30 169
e 30 180
e 30 186
e 30 216
e 30 231
e 30 232
e 30 238
e 30 243
e 31 32
e 31 34
e 31 37
e 31 38
e 31 39
e 31 40
e 31 41
e 31 43
e 31 45
e 31 46
e 31 47
e 31 51
e 31 54
e 31 55
e 31 56
e 31 57
e 31 60
e 31 63
e 31 67
e 31 69
e 31 73
e 31 77
e 31 81
e 31 84
e 31 86
e 31 89
e 31 92
e 31 95
e 31 97
e 31 106
e 31 109
e 31 110
e 31 114
e 31 137
e 31 143
e 31 145
e 31 151
e 31 164
e 31 168
e 31 174
e 31 179
e 31 182
e 31 185
e 31 187
e 31 194
e 31 195
e 31 197
e 31 212
e 31 225
e 31 226
e 31 227
e 31 232
e 31 239
e 31 244
e 32 33
e 32 34
e 32 41
e 32 42
e 32 49
e 32 51
e 32 56
e 32 65
e 32 66
e 32 75
e 32 78
e 32 83
e 32 90
e 32 96
e 32 97
e 32 115
e 32 116
e 32 122
e 32 125
e 32 131
e 32 135
e 32 136
e 32 163
e 32 171
e 32 172
e 32 173
e 32 176
e 32 177
e 32 182
e 32 198
e 32 204
e 32 206
e 32 214
e 32 225
e 32 229
e 32 240
e 33 34
e 33 37
e 33 39
e 33 45
e 33 46
e 33 58
e 33 60
e 33 62
e 33 65
e 33 78
e 33 79
e 33 80
e 33 87
e 33 102
e 33 103
e 33 104
e 33 110
e 33 122
e 33 123
e 33 128
e 33 140
e 33 147
e 33 149
e 33 157
e 33 181
e 33 185
e 33 204
e 33 209
e 33 220
e 33 237
e 33 238
e 33 239
e 34 36
e 34 37
e 34 38
e 34 45
e 34 48
e 34 54
e 34 55
e 34 56
e 34 57
e 34 62
e 34 65
e 34 67
e 34 70
e 34 71
e 34 78
e 34 83
e 34 85
e 34 87
e 34 91
e 34 93
e 34 107
e 34 115
e 34 119
e 34 120
e 34 122
e 34 124
e 34 125
e 34 126
e 34 131
e 34 135
e 34 136
e 34 141
e 34 146
e 34 147
e 34 155
e 34 159
e 34 163
e 34 165
e 34 177
e 34 178
e 34 179
e 34 188
e 34 195
e 34 196
e 34 197
e 34 206
e 34 211
e 34 215
e 34 216
e 34 223
e 34 224
e 34 230
e 34 232
e 34 235
e 34 244
e 34 248
e 35 36
e 35 38
e 35 43
e 35 52
e 35 53
e 35 59
e 35 64
e 35 67
e 35 75
e 35 76
e 35 77
e 35 78
e 35 80
e 35 86
e 35 91
e 35 100
e 35 104
e 35 105
e 35 109
e 35 111
e 35 112
e 35 131
e 35 132
e 35 135
e 35 136
e 35 146
e 35 149
e 35 150
e 35 151
e 35 154
e 35 159
e 35 162
e 35 163
e 35 165
e 35 166
e 35 168
e 35 179
e 35 180
e 35 189
e 35 192
e 35 197
e 35 202
e 35 211
e 35 220
e 35 224
e 35 228
e 35 236
e 35 243
e 35 245
e 35 246
e 36 38
e 36 39
e 36 40
e 36 42
e 36 43
e 36 45
e 36 46
e 36 51
e 36 52
e 36 56
e 36 57
e 36 59
e 36 65
e 36 72
e 36 73
e 36 91
e 36 93
e 36 101
e 36 102
e 36 111
e 36 113
e 36 115
e 36 124
e 36 127
e 36 131
e 36 134
e 36 135
e 36 140
e 36 145
e 36 148
e 36 157
e 36 165
e 36 175
e 36 185
e 36 189
e 36 193
e 36 195
e 36 196
e 36 198
e 36 234
e 36 238
e 37 39
e 37 45
e 37 46
e 37 48
e 37 52
e 37 70
e 37 94
e 37 99
e 37 103
e 37 106
e 37 117
e 37 142
e 37 151
e 37 155
e 37 171
e 37 172
e 37 182
e 37 210
e 37 228
e 37 246
e 38 39
e 38 40
e 38 42
e 38 43
e 38 44
e 38 48
e 38 51
e 38 53
e 38 54
e 38 56
e 38 59
e 38 60
e 38 61
e 38 62
e 38 64
e 38 70
e 38 71
e 38 72
e 38 74
e 38 75
e 38 80
e 38 94
e 38 96
e 38 97
e 38 99
e 38 100
e 38 102
e 38 105
e 38 113
e 38 114
e 38 126
e 38 127
e 38 128
e 38 132
e 38 133
e 38 134
e 38 135
e 38 136
e 38 143
e 38 162
e 38 163
e 38 171
e 38 188
e 38 191
e 38 201
e 38 212
e 38 215
e 38 217
e 38 225
e 38 229
e 38 241
e 39 40
e 39 41
e 39 43
e 39 49
e 39 50
e 39 52
e 39 53
e 39 57
e 39 59
e 39 66
e 39 77
e 39 79
e 39 82
e 39 90
e 39 102
e 39 103
e 39 108
e 39 109
e 39 116
e 39 128
e 39 144
e 39 146
e 39 160
e 39 166
e 39 170
e 39 179
e 39 182
e 39 197
e 39 205
e 39 211
e 39 216
e 39 233
e 39 238
e 40 42
e 40 45
e 40 50
e 40 51
e 40 54
e 40 66
e 40 68
e 40 69
e 40 74
e 40 75
e 40 76
e 40 78
e 40 80
e 40 81
e 40 85
e 40 86
e 40 87
e 40 90
e 40 94
e 40 97
e 40 111
e 40 115
e 40 129
e 40 132
e 40 136
e 40 140
e 40 143
e 40 157
e 40 161
e 40 168
e 40 171
e 40 193
e 40 201
e 40 215
e 40 216
e 40 221
e 40 231
e 40 236
e 41 44
e 41 51
e 41 53
e 41 58
e 41 64
e 41 79
e 41 82
e 41 91
e 41 97
e 41 98
e 41 101
e 41 112
e 41 114
e 41 120
e 41 122
e 41 125
e 41 127
e 41 132
e 41 135
e 41 138
e 41 140
e 41 145
e 41 154
e 41 181
e 41 189
e 41 194
e 41 197
e 41 205
e 41 209
e 41 227
e 41 233
e 41 236
e 41 237
e 42 57
e 42 62
e 42 67
e 42 80
e 42 81
e 42 85
e 42 100
e 42 106
e 42 108
e 42 120
e 42 124
e 42 140
e 42 141
e 42 147
e 42 157
e 42 158
e 42 160
e 42 193
e 42 196
e 42 200
e 42 201
e 42 205
e 42 213
e 42 233
e 42 236
e 42 240
e 43 44
e 43 48
e 43 56
e 43 57
e 43 68
e 43 71
e 43 74
e 43 75
e 43 78
e 43 96
e 43 98
e 43 99
e 43 100
e 43 104
e 43 115
e 43 117
e 43 120
e 43 132
e 43 149
e 43 156
e 43 157
e 43 167
e 43 181
e 43 184
e 43 187
e 43 196
e 43 197
e 43 202
e 43 232
e 43 245
e 44 45
e 44 55
e 44 59
e 44 77
e 44 85
e 44 91
e 44 107
e 44 113
e 44 127
e 44 171
e 44 187
e 44 214
e 44 217
e 44 234
e 44 246
e 44 248
e 45 48
e 45 50
e 45 51
e 45 52
e 45 53
e 45 55
e 45 59
e 45 71
e 45 75
e 45 81
e 45 85
e 45 104
e 45 108
e 45 110
e 45 119
e 45 124
e 45 142
e 45 148
e 45 149
e 45 153
e 45 158
e 45 179
e 45 196
e 45 198
e 45 204
e 46 47
e 46 49
e 46 51
e 46 52
e 46 54
e 46 55
e 46 63
e 46 69
e 46 75
e 46 78
e 46 81
e 46 89
e 46 94
e 46 98
e 46 99
e 46 111
e 46 119
e 46 120
e 46 149
e 46 180
e 46 186
e 46 196
e 46 205
e 46 226
e 46 235
e 46 236
e 46 245
e 47 48
e 47 58
e 47 62
e 47 65
e 47 66
e 47 74
e 47 76
e 47 77
e 47 84
e 47 87
e 47 92
e 47 93
e 47 98
e 47 108
e 47 114
e 47 116
e 47 123
e 47 126
e 47 130
e 47 131
e 47 134
e 47 137
e 47 147
e 47 148
e 47 162
e 47 173
e 47 176
e 47 189
e 47 190
e 47 199
e 47 203
e 47 206
e 47 208
e 47 211
e 47 215
e 47 217
e 47 227
e 47 229
e 47 230
e 47 233
e 47 234
e 48 51
e 48 61
e 48 62
e 48 64
e 48 69
e 48 70
e 48 83
e 48 84
e 48 88
e 48 89
e 48 90
e 48 101
e 48 105
e 48 108
e 48 110
e 48 114
e 48 119
e 48 137
e 48 153
e 48 166
e 48 174
e 48 177
e 48 183
e 48 186
e 48 196
e 48 201
e 48 203
e 48 221
e 48 238
e 49 52
e 49 55
e 49 57
e 49 59
e 49 60
e 49 65
e 49 77
e 49 95
e 49 117
e 49 124
e 49 125
e 49 148
e 49 164
e 49 165
e 49 186
e 49 206
e 49 216
e 49 217
e 49 218
e 49 220
e 49 221
e 49 230
e 50 54
e 50 58
e 50 79
e 50 82
e 50 85
e 50 95
e 50 97
e 50 108
e 50 113
e 50 114
e 50 117
e 50 138
e 50 143
e 50 146
e 50 153
e 50 178
e 50 182
e 50 186
e 50 192
e 50 196
e 50 198
e 50 218
e 50 227
e 50 228
e 50 236
e 51 52
e 51 68
e 51 70
e 51 72
e 51 77
e 51 79
e 51 86
e 51 87
e 51 89
e 51 90
e 51 94
e 51 96
e 51 103
e 51 107
e 51 113
e 51 128
e 51 129
e 51 145
e 51 149
e 51 156
e 51 157
e 51 166
e 51 178
e 51 180
e 51 186
e 51 189
e 51 195
e 51 199
e 51 202
e 51 209
e 52 53
e 52 57
e 52 62
e 52 63
e 52 64
e 52 67
e 52 73
e 52 78
e 52 79
e 52 80
e 52 87
e 52 88
e 52 97
e 52 100
e 52 116
e 52 122
e 52 123
e 52 134
e 52 139
e 52 154
e 53 54
e 53 56
e 53 60
e 53 64
e 53 67
e 53 70
e 53 72
e 53 78
e 53 79
e 53 83
e 53 84
e 53 88
e 53 93
e 53 99
e 53 102
e 53 106
e 53 121
e 53 125
e 53 130
e 53 133
e 53 139
e 53 143
e 53 144
e 53 156
e 53 168
e 53 174
e 53 184
e 53 192
e 53 195
e 53 203
e 53 204
e 53 212
e 53 231
e 53 247
e 54 59
e 54 60
e 54 65
e 54 70
e 54 71
e 54 73
e 54 76
e 54 82
e 54 89
e 54 92
e 54 93
e 54 143
e 54 151
e 54 174
e 54 179
e 54 182
e 54 188
e 54 210
e 54 224
e 54 230
e 54 234
e 55 61
e 55 62
e 55 64
e 55 79
e 55 103
e 55 116
e 55 134
e 55 144
e 55 157
e 55 163
e 55 170
e 55 178
e 55 194
e 55 196
e 55 213
e 55 214
e 55 231
e 55 243
e 56 57
e 56 64
e 56 66
e 56 76
e 56 79
e 56 83
e 56 92
e 56 98
e 56 102
e 56 107
e 56 114
e 56 123
e 56 136
e 56 143
e 56 158
e 56 199
e 56 204
e 56 227
e 56 247
e 57 58
e 57 69
e 57 71
e 57 74
e 57 76
e 57 83
e 57 86
e 57 89
e 57 96
e 57 97
e 57 102
e 57 106
e 57 109
e 57 114
e 57 119
e 57 126
e 57 131
e 57 133
e 57 135
e 57 136
e 57 140
e 57 141
e 57 145
e 57 147
e 57 168
e 57 169
e 57 176
e 57 179
e 57 190
e 57 196
e 57 198
e 57 202
e 57 205
e 57 209
e 57 210
e 57 212
e 57 213
e 57 226
e 57 234
e 58 60
e 58 86
e 58 101
e 58 107
e 58 117
e 58 122
e 58 123
e 58 128
e 58 134
e 58 144
e 58 153
e 58 159
e 58 160
e 58 162
e 58 164
e 58 167
e 58 168
e 58 178
e 58 180
e 58 191
e 58 231
e 58 234
e 58 248
e 59 77
e 59 98
e 59 102
e 59 107
e 59 111
e 59 121
e 59 129
e 59 142
e 59 147
e 59 159
e 59 186
e 59 201
e 59 208
e 59 233
e 60 63
e 60 68
e 60 70
e 60 82
e 60 84
e 60 88
e 60 91
e 60 93
e 60 97
e 60 116
e 60 118
e 60 140
e 60 157
e 60 158
e 60 161
e 60 163
e 60 171
e 60 174
e 60 182
e 60 191
e 60 231
e 60 246
e 60 247
e 61 65
e 61 66
e 61 74
e 61 75
e 61 83
e 61 86
e 61 98
e 61 122
e 61 130
e 61 134
e 61 135
e 61 140
e 61 141
e 61 163
e 61 186
e 61 219
e 61 223
e 62 63
e 62 67
e 62 69
e 62 72
e 62 79
e 62 85
e 62 91
e 62 96
e 62 98
e 62 106
e 62 107
e 62 111
e 62 113
e 62 137
e 62 138
e 62 143
e 62 145
e 62 147
e 62 158
e 62 162
e 62 178
e 62 180
e 62 185
e 62 202
e 62 219
e 62 221
e 63 67
e 63 74
e 63 76
e 63 77
e 63 81
e 63 82
e 63 103
e 63 104
e 63 113
e 63 114
e 63 122
e 63 132
e 63 138
e 63 144
e 63 145
e 63 161
e 63 212
e 63 217
e 63 235
e 64 72
e 64 73
e 64 76
e 64 81
e 64 84
e 64 89
e 64 92
e 64 102
e 64 105
e 64 111
e 64 122
e 64 138
e 64 145
e 64 163
e 64 170
e 64 179
e 64 184
e 64 189
e 64 192
e 64 199
e 64 209
e 65 72
e 65 73
e 65 74
e 65 79
e 65 81
e 65 85
e 65 90
e 65 92
e 65 105
e 65 109
e 65 111
e 65 121
e 65 123
e 65 134
e 65 139
e 65 143
e 65 145
e 65 148
e 65 150
e 65 151
e 65 158
e 65 163
e 65 170
e 65 171
e 65 201
e 65 202
e 65 213
e 65 221
e 65 227
e 65 234
e 65 241
e 65 243
e 65 248
e 66 73
e 66 84
e 66 91
e 66 93
e 66 109
e 66 132
e 66 138
e 66 143
e 66 144
e 66 155
e 66 161
e 66 179
e 66 185
e 66 192
e 66 203
e 66 204
e 66 232
e 66 235
e 67 68
e 67 72
e 67 78
e 67 85
e 67 86
e 67 93
e 67 98
e 67 102
e 67 113
e 67 120
e 67 138
e 67 168
e 67 171
e 67 198
e 67 226
e 67 227
e 68 70
e 68 72
e 68 84
e 68 85
e 68 100
e 68 103
e 68 104
e 68 115
e 68 120
e 68 123
e 68 125
e 68 128
e 68 134
e 68 139
e 68 146
e 68 150
e 68 158
e 68 159
e 68 169
e 68 172
e 68 178
e 68 181
e 68 184
e 68 186
e 68 187
e 68 198
e 68 210
e 68 214
e 68 223
e 68 242
e 69 72
e 69 73
e 69 86
e 69 92
e 69 124
e 69 134
e 69 146
e 69 149
e 69 154
e 69 173
e 69 174
e 69 181
e 69 188
e 69 195
e 69 200
e 69 233
e 69 240
e 69 244
e 70 73
e 70 76
e 70 84
e 70 87
e 70 88
e 70 91
e 70 92
e 70 95
e 70 97
e 70 101
e 70 105
e 70 118
e 70 124
e 70 129
e 70 131
e 70 133
e 70 136
e 70 138
e 70 150
e 70 151
e 70 164
e 70 168
e 70 171
e 70 174
e 70 175
e 70 182
e 70 187
e 70 188
e 70 195
e 70 201
e 70 203
e 70 209
e 70 212
e 70 246
e 71 77
e 71 83
e 71 106
e 71 112
e 71 133
e 71 141
e 71 152
e 71 164
e 71 189
e 71 201
e 71 211
e 71 224
e 71 225
e 71 229
e 71 232
e 71 242
e 72 76
e 72 79
e 72 89
e 72 90
e 72 93
e 72 94
e 72 131
e 72 150
e 72 180
e 72 190
e 72 221
e 72 224
e 72 226
e 72 234
e 72 239
e 72 240
e 73 98
e 73 99
e 73 101
e 73 115
e 73 118
e 73 176
e 73 209
e 73 239
e 74 107
e 74 113
e 74 116
e 74 129
e 74 135
e 74 140
e 74 146
e 74 148
e 74 149
e 74 152
e 74 154
e 74 155
e 74 168
e 74 175
e 74 190
e 74 207
e 74 240
e 74 248
e 75 87
e 75 89
e 75 93
e 75 98
e 75 101
e 75 110
e 75 115
e 75 119
e 75 121
e 75 133
e 75 137
e 75 142
e 75 151
e 75 152
e 75 153
e 75 166
e 75 168
e 75 173
e 75 181
e 75 186
e 75 190
e 75 191
e 75 192
e 75 194
e 75 196
e 75 232
e 75 236
e 75 238
e 75 240
e 76 80
e 76 92
e 76 100
e 76 102
e 76 129
e 76 131
e 76 133
e 76 136
e 76 150
e 76 213
e 76 226
e 76 238
e 76 243
e 77 101
e 77 109
e 77 118
e 77 128
e 77 143
e 77 198
e 77 207
e 77 224
e 77 228
e 77 241
e 78 80
e 78 86
e 78 87
e 78 92
e 78 94
e 78 100
e 78 105
e 78 108
e 78 116
e 78 117
e 78 131
e 78 147
e 78 162
e 78 174
e 78 177
e 78 186
e 78 191
e 79 91
e 79 101
e 79 119
e 79 125
e 79 141
e 79 177
e 79 181
e 79 201
e 79 227
e 79 229
e 80 89
e 80 112
e 80 113
e 80 139
e 80 160
e 80 176
e 80 187
e 80 247
e 81 88
e 81 104
e 81 107
e 81 108
e 81 115
e 81 116
e 81 118
e 81 119
e 81 129
e 81 142
e 81 150
e 81 153
e 81 154
e 81 157
e 81 160
e 81 171
e 81 198
e 81 208
e 81 223
e 81 230
e 81 247
e 82 85
e 82 94
e 82 100
e 82 106
e 82 108
e 82 111
e 82 123
e 82 127
e 82 129
e 82 143
e 82 152
e 82 153
e 82 160
e 82 169
e 82 177
e 82 187
e 82 194
e 82 202
e 82 207
e 82 209
e 82 210
e 82 231
e 82 233
e 82 239
e 83 95
e 83 143
e 83 170
e 83 176
e 83 182
e 83 183
e 83 210
e 83 223
e 84 97
e 84 102
e 84 112
e 84 119
e 84 125
e 84 170
e 84 180
e 84 183
e 84 209
e 84 217
e 84 220
e 85 88
e 85 107
e 85 140
e 85 144
e 85 151
e 85 159
e 85 184
e 85 207
e 85 215
e 86 89
e 86 96
e 86 118
e 86 123
e 86 124
e 86 126
e 86 131
e 86 132
e 86 136
e 86 139
e 86 142
e 86 144
e 86 149
e 86 157
e 86 160
e 86 189
e 86 207
e 86 227
e 86 247
e 86 248
e 87 88
e 87 90
e 87 91
e 87 95
e 87 98
e 87 102
e 87 109
e 87 122
e 87 139
e 87 194
e 88 103
e 88 105
e 88 106
e 88 142
e 88 144
e 88 166
e 88 184
e 88 188
e 89 94
e 89 95
e 89 99
e 89 106
e 89 109
e 89 110
e 89 113
e 89 119
e 89 129
e 89 130
e 89 135
e 89 140
e 89 146
e 89 150
e 89 152
e 89 170
e 89 220
e 89 238
e 89 248
e 90 97
e 90 132
e 90 133
e 90 149
e 90 159
e 90 167
e 90 170
e 90 180
e 90 183
e 90 187
e 90 188
e 90 196
e 90 219
e 90 232
e 90 239
e 90 241
e 91 100
e 91 141
e 91 174
e 91 175
e 91 210
e 91 211
e 91 225
e 92 97
e 92 103
e 92 111
e 92 178
e 92 201
e 92 219
e 92 241
e 93 100
e 93 113
e 93 115
e 93 130
e 93 136
e 93 142
e 93 159
e 93 176
e 93 188
e 93 200
e 93 224
e 93 225
e 93 234
e 94 114
e 94 140
e 94 153
e 94 159
e 94 164
e 94 169
e 94 174
e 94 196
e 94 223
e 94 238
e 95 96
e 95 99
e 95 108
e 95 153
e 95 196
e 95 229
e 95 237
e 96 98
e 96 157
e 96 158
e 96 161
e 96 162
e 96 180
e 96 240
e 96 248
e 97 112
e 97 126
e 97 181
e 97 185
e 97 213
e 97 234
e 98 104
e 98 118
e 98 132
e 98 158
e 98 165
e 98 170
e 98 195
e 98 197
e 98 221
e 98 239
e 99 105
e 99 118
e 99 121
e 99 125
e 99 129
e 99 132
e 99 133
e 99 145
e 99 152
e 99 155
e 99 156
e 99 183
e 99 187
e 99 242
e 99 246
e 100 104
e 100 109
e 100 114
e 100 135
e 100 145
e 100 164
e 100 174
e 100 193
e 100 215
e 100 219
e 100 222
e 100 247
e 101 103
e 101 146
e 101 149
e 101 165
e 101 192
e 101 195
e 101 203
e 101 226
e 101 235
e 101 243
e 101 244
e 102 121
e 102 133
e 102 160
e 102 166
e 102 175
e 102 204
e 102 211
e 102 242
e 103 108
e 103 120
e 103 122
e 103 124
e 103 141
e 103 154
e 103 155
e 103 157
e 103 186
e 103 197
e 103 205
e 103 213
e 103 215
e 103 228
e 103 233
e 103 239
e 103 243
e 103 247
e 104 108
e 104 124
e 104 127
e 104 130
e 104 135
e 104 152
e 104 167
e 104 169
e 104 176
e 104 211
e 104 218
e 104 234
e 104 237
e 104 239
e 104 242
e 105 111
e 105 118
e 105 137
e 105 141
e 105 180
e 105 204
e 106 130
e 106 136
e 106 219
e 106 222
e 106 237
e 106 243
e 106 246
e 107 112
e 107 114
e 107 116
e 107 122
e 107 158
e 107 185
e 107 207
e 107 209
e 107 235
e 108 114
e 108 116
e 108 118
e 108 139
e 108 145
e 108 146
e 108 159
e 108 176
e 108 178
e 108 181
e 108 182
e 108 188
e 108 210
e 109 123
e 109 127
e 109 129
e 110 112
e 110 160
e 110 178
e 110 191
e 110 199
e 110 214
e 111 121
e 111 142
e 111 152
e 111 159
e 111 181
e 111 193
e 111 222
e 111 238
e 111 245
e 112 120
e 112 127
e 112 128
e 112 136
e 112 137
e 112 163
e 112 167
e 112 173
e 112 175
e 112 184
e 112 188
e 112 202
e 112 205
e 112 206
e 112 228
e 113 121
e 113 126
e 113 127
e 113 140
e 113 147
e 113 150
e 113 152
e 113 187
e 113 188
e 113 236
e 114 119
e 114 138
e 114 139
e 114 148
e 114 152
e 114 154
e 114 170
e 114 185
e 114 232
e 114 243
e 114 245
e 114 248
e 115 117
e 115 129
e 115 138
e 115 139
e 115 173
e 115 188
e 115 190
e 115 202
e 115 245
e 116 179
e 117 122
e 117 130
e 117 193
e 117 195
e 118 154
e 118 156
e 118 173
e 118 179
e 118 180
e 119 122
e 119 123
e 119 167
e 119 169
e 119 179
e 119 192
e 119 229
e 119 241
e 120 151
e 120 169
e 120 170
e 120 184
e 120 187
e 120 189
e 120 215
e 120 229
e 120 238
e 121 124
e 121 127
e 121 161
e 121 188
e 121 207
e 121 213
e 121 238
e 121 247
e 122 128
e 122 130
e 122 163
e 122 165
e 122 173
e 122 178
e 122 189
e 122 203
e 122 229
e 122 237
e 123 142
e 123 162
e 123 190
e 123 193
e 123 205
e 124 156
e 124 167
e 124 182
e 124 219
e 124 229
e 124 231
e 125 192
e 125 207
e 125 224
e 125 231
e 125 245
e 126 171
e 126 188
e 126 190
e 126 205
e 126 214
e 126 222
e 126 246
e 127 156
e 127 164
e 127 169
e 127 172
e 127 199
e 128 182
e 128 186
e 128 187
e 128 194
e 128 243
e 128 247
e 129 130
e 129 133
e 129 147
e 129 152
e 129 154
e 129 166
e 129 176
e 129 197
e 129 233
e 130 161
e 130 170
e 130 173
e 130 181
e 130 188
e 130 197
e 130 208
e 130 210
e 130 227
e 130 243
e 131 159
e 131 161
e 131 167
e 131 184
e 131 189
e 132 155
e 132 157
e 132 168
e 132 169
e 132 177
e 132 218
e 133 138
e 133 162
e 133 206
e 133 214
e 133 228
e 133 232
e 134 146
e 134 150
e 134 152
e 134 167
e 134 170
e 134 194
e 134 201
e 134 203
e 134 210
e 134 226
e 135 137
e 135 146
e 135 153
e 135 167
e 135 174
e 135 220
e 135 221
e 135 241
e 135 247
e 136 142
e 136 148
e 136 155
e 136 162
e 136 177
e 136 185
e 137 220
e 137 226
e 137 245
e 137 246
e 138 155
e 138 206
e 138 227
e 138 241
e 138 245
e 139 154
e 139 156
e 139 158
e 139 167
e 139 172
e 139 173
e 139 200
e 139 228
e 139 235
e 140 142
e 140 175
e 140 179
e 140 197
e 140 199
e 140 214
e 140 229
e 140 237
e 141 210
e 141 225
e 141 235
e 141 246
e 142 161
e 142 166
e 142 191
e 142 203
e 142 209
e 142 216
e 143 183
e 143 190
e 143 191
e 143 236
e 144 154
e 144 167
e 144 187
e 144 240
e 144 245
e 145 156
e 145 165
e 145 169
e 145 172
e 145 183
e 145 222
e 145 230
e 146 149
e 146 163
e 146 177
e 146 191
e 146 195
e 146 221
e 146 239
e 147 164
e 147 176
e 147 178
e 147 217
e 147 230
e 148 151
e 148 172
e 148 191
e 148 205
e 148 207
e 148 214
e 148 218
e 148 223
e 149 152
e 149 182
e 149 190
e 149 195
e 149 208
e 149 240
e 150 154
e 150 162
e 150 172
e 150 182
e 150 188
e 150 198
e 150 199
e 150 206
e 150 207
e 150 217
e 150 228
e 150 235
e 150 241
e 151 156
e 151 170
e 151 179
e 151 208
e 152 153
e 152 160
e 152 163
e 152 165
e 152 180
e 152 201
e 152 202
e 152 204
e 152 208
e 152 218
e 152 219
e 152 234
e 152 237
e 154 166
e 154 171
e 154 175
e 154 177
e 154 194
e 154 202
e 154 204
e 154 212
e 154 233
e 154 247
e 155 182
e 155 191
e 155 216
e 156 165
e 156 176
e 156 181
e 156 190
e 156 196
e 156 205
e 156 236
e 157 168
e 157 193
e 157 197
e 157 213
e 158 194
e 158 211
e 159 171
e 159 191
e 160 164
e 160 174
e 160 197
e 160 206
e 160 230
e 161 175
e 161 187
e 161 190
e 161 198
e 161 199
e 161 206
e 161 236
e 162 176
e 162 240
e 162 248
e 163 175
e 163 184
e 163 198
e 163 203
e 163 224
e 164 195
e 164 202
e 165 185
e 165 193
e 165 208
e 165 234
e 166 169
e 166 173
e 166 200
e 166 211
e 166 225
e 167 199
e 167 212
e 167 222
e 167 231
e 168 173
e 168 197
e 168 198
e 168 231
e 169 228
e 170 247
e 171 173
e 171 174
e 171 192
e 171 237
e 172 176
e 173 195
e 173 207
e 173 243
e 174 177
e 174 192
e 174 200
e 174 216
e 174 219
e 174 233
e 175 183
e 175 227
e 175 234
e 176 233
e 176 248
e 177 184
e 177 194
e 177 197
e 177 208
e 177 214
e 177 238
e 177 239
e 178 219
e 178 222
e 178 229
e 179 181
e 179 183
e 179 230
e 179 231
e 180 182
e 180 195
e 180 203
e 180 217
e 180 231
e 181 183
e 181 193
e 181 208
e 181 221
e 181 226
e 181 232
e 181 245
e 182 207
e 182 217
e 182 242
e 183 201
e 183 206
e 183 214
e 183 218
e 183 219
e 183 224
e 183 246
e 184 241
e 184 246
e 185 186
e 185 208
e 185 213
e 185 226
e 185 228
e 186 220
e 187 193
e 187 221
e 187 244
e 188 200
e 188 210
e 188 222
e 188 240
e 189 203
e 189 237
e 190 230
e 191 228
e 192 210
e 192 215
e 192 240
e 192 244
e 193 207
e 193 229
e 193 246
e 194 199
e 194 206
e 194 215
e 194 218
e 194 235
e 195 218
e 195 245
e 196 226
e 196 246
e 197 206
e 197 241
e 197 242
e 198 241
e 198 248
e 199 212
e 200 204
e 200 245
e 201 212
e 202 215
e 202 229
e 203 224
e 203 236
e 204 210
e 204 217
e 204 219
e 204 221
e 204 223
e 204 224
e 204 230
e 204 240
e 204 241
e 204 246
e 205 211
e 206 214
e 206 229
e 206 235
e 207 216
e 207 218
e 207 239
e 211 216
e 211 225
e 211 230
e 212 216
e 212 244
e 214 220
e 214 225
e 215 223
e 215 225
e 217 237
e 218 223
e 220 221
e 220 233
e 221 239
e 222 226
e 222 243
e 223 225
e 225 237
e 226 235
e 226 238
e 227 236
e 229 247
e 230 238
e 230 244
e 234 236
e 234 244
e 235 236
e 238 239
e 238 244
